c 
c MolecularSimulation 0.9.3
c Simulation written: Jan 13 2012 -- 15:17:57
c Test: Distribution
c Input: ./data/testCNF/SWEEP_R5_K3_N20_M92_S002.cnf
c 
s SATISFIABLE
v -1 -2 3 4 5 -6 7 8 9 -10 11 12 13 -14 15 -16 -17 -18 19 -20 0
c algorithmTime:  915
c solutionMemory: 53
c mixCount:       273
c extractCount:   0
c appendCount:    16797814
c splitCount:     273
c spliceCount:    7896178
c purifyCount:    91
c 
